language Essence 1.3

letting blksize_delta be function(1 --> 5, 2 --> 7, 3 --> 5, 4 --> 5, 5 --> 6)
letting maxcars be function(1 --> 9, 2 --> 9, 3 --> 9, 4 --> 10, 5 --> 10)
letting n_cars be 300
letting n_classes be 181
letting n_options be 5
letting quantity be
        function(1 --> 51, 2 --> 1, 3 --> 46, 4 --> 23, 5 --> 1, 6 --> 3, 7 --> 1, 8 --> 1, 9 --> 1, 10 --> 1, 11 --> 1,
                 12 --> 1, 13 --> 1, 14 --> 1, 15 --> 1, 16 --> 1, 17 --> 1, 18 --> 1, 19 --> 1, 20 --> 1, 21 --> 1,
                 22 --> 1, 23 --> 1, 24 --> 1, 25 --> 1, 26 --> 1, 27 --> 1, 28 --> 1, 29 --> 1, 30 --> 1, 31 --> 1,
                 32 --> 1, 33 --> 1, 34 --> 1, 35 --> 1, 36 --> 1, 37 --> 1, 38 --> 1, 39 --> 1, 40 --> 1, 41 --> 1,
                 42 --> 1, 43 --> 1, 44 --> 1, 45 --> 1, 46 --> 1, 47 --> 1, 48 --> 1, 49 --> 1, 50 --> 1, 51 --> 1,
                 52 --> 1, 53 --> 1, 54 --> 1, 55 --> 1, 56 --> 1, 57 --> 1, 58 --> 1, 59 --> 1, 60 --> 1, 61 --> 1,
                 62 --> 1, 63 --> 1, 64 --> 1, 65 --> 1, 66 --> 1, 67 --> 1, 68 --> 1, 69 --> 1, 70 --> 1, 71 --> 1,
                 72 --> 1, 73 --> 1, 74 --> 1, 75 --> 1, 76 --> 1, 77 --> 1, 78 --> 1, 79 --> 1, 80 --> 1, 81 --> 1,
                 82 --> 1, 83 --> 1, 84 --> 1, 85 --> 1, 86 --> 1, 87 --> 1, 88 --> 1, 89 --> 1, 90 --> 1, 91 --> 1,
                 92 --> 1, 93 --> 1, 94 --> 1, 95 --> 1, 96 --> 1, 97 --> 1, 98 --> 1, 99 --> 1, 100 --> 1, 101 --> 1,
                 102 --> 1, 103 --> 1, 104 --> 1, 105 --> 1, 106 --> 1, 107 --> 1, 108 --> 1, 109 --> 1, 110 --> 1,
                 111 --> 1, 112 --> 1, 113 --> 1, 114 --> 1, 115 --> 1, 116 --> 1, 117 --> 1, 118 --> 1, 119 --> 1,
                 120 --> 1, 121 --> 1, 122 --> 1, 123 --> 1, 124 --> 1, 125 --> 1, 126 --> 1, 127 --> 1, 128 --> 1,
                 129 --> 1, 130 --> 1, 131 --> 1, 132 --> 1, 133 --> 1, 134 --> 1, 135 --> 1, 136 --> 1, 137 --> 1,
                 138 --> 1, 139 --> 1, 140 --> 1, 141 --> 1, 142 --> 1, 143 --> 1, 144 --> 1, 145 --> 1, 146 --> 1,
                 147 --> 1, 148 --> 1, 149 --> 1, 150 --> 1, 151 --> 1, 152 --> 1, 153 --> 1, 154 --> 1, 155 --> 1,
                 156 --> 1, 157 --> 1, 158 --> 1, 159 --> 1, 160 --> 1, 161 --> 1, 162 --> 1, 163 --> 1, 164 --> 1,
                 165 --> 1, 166 --> 1, 167 --> 1, 168 --> 1, 169 --> 1, 170 --> 1, 171 --> 1, 172 --> 1, 173 --> 1,
                 174 --> 1, 175 --> 1, 176 --> 1, 177 --> 1, 178 --> 1, 179 --> 1, 180 --> 1, 181 --> 1)
letting usage be
        relation((1, 1), (1, 3), (1, 4), (2, 4), (2, 5), (3, 3), (3, 5), (4, 5), (5, 1), (5, 2), (6, 1), (6, 2), (6, 4),
                 (7, 1), (7, 2), (7, 5), (8, 4), (8, 5), (9, 2), (10, 1), (10, 4), (11, 3), (12, 3), (12, 4), (13, 3),
                 (14, 3), (14, 4), (15, 3), (15, 5), (16, 1), (17, 1), (17, 3), (17, 5), (18, 1), (18, 2), (18, 3),
                 (18, 4), (19, 5), (20, 4), (21, 3), (21, 5), (22, 1), (22, 2), (22, 4), (23, 1), (23, 4), (24, 2),
                 (24, 4), (24, 5), (25, 2), (25, 3), (25, 4), (26, 1), (26, 2), (27, 4), (28, 2), (28, 3), (29, 2),
                 (29, 4), (30, 1), (31, 1), (31, 4), (32, 2), (33, 3), (33, 5), (34, 1), (34, 2), (34, 3), (34, 4),
                 (34, 5), (35, 2), (35, 3), (35, 4), (36, 1), (36, 2), (36, 5), (37, 1), (37, 2), (37, 4), (37, 5),
                 (38, 1), (39, 1), (39, 2), (39, 5), (40, 3), (40, 4), (41, 1), (41, 3), (41, 4), (41, 5), (42, 2),
                 (42, 4), (43, 1), (44, 2), (45, 4), (46, 5), (47, 4), (48, 1), (48, 5), (49, 3), (49, 5), (50, 4),
                 (50, 5), (51, 2), (52, 3), (53, 1), (53, 2), (53, 5), (54, 3), (54, 4), (55, 1), (55, 3), (55, 4),
                 (56, 1), (56, 4), (57, 4), (57, 5), (58, 2), (58, 5), (59, 1), (59, 2), (59, 5), (60, 1), (60, 2),
                 (60, 3), (61, 2), (61, 4), (62, 1), (62, 4), (63, 3), (63, 4), (63, 5), (64, 3), (64, 4), (64, 5),
                 (65, 1), (66, 5), (67, 1), (67, 3), (67, 5), (68, 5), (69, 3), (70, 1), (70, 2), (71, 1), (71, 2),
                 (71, 3), (72, 1), (72, 3), (73, 2), (73, 3), (73, 4), (74, 1), (74, 2), (74, 3), (74, 4), (75, 4),
                 (76, 1), (76, 2), (76, 3), (76, 4), (76, 5), (77, 3), (77, 5), (78, 2), (78, 3), (78, 5), (79, 1),
                 (79, 2), (79, 4), (80, 1), (80, 3), (80, 5), (81, 1), (81, 2), (81, 3), (81, 4), (82, 1), (82, 3),
                 (82, 5), (83, 5), (84, 1), (84, 2), (85, 3), (85, 4), (85, 5), (86, 1), (86, 3), (87, 2), (87, 3),
                 (87, 5), (88, 1), (88, 3), (89, 2), (89, 3), (89, 4), (89, 5), (90, 1), (90, 4), (90, 5), (91, 4),
                 (91, 5), (92, 5), (93, 3), (93, 5), (94, 5), (95, 5), (96, 1), (96, 2), (96, 4), (96, 5), (97, 5),
                 (98, 1), (98, 2), (98, 4), (98, 5), (99, 2), (99, 4), (99, 5), (100, 1), (100, 2), (100, 4), (101, 1),
                 (101, 2), (101, 3), (102, 2), (102, 5), (103, 2), (103, 3), (103, 4), (103, 5), (104, 5), (105, 1),
                 (105, 2), (106, 1), (106, 2), (106, 4), (107, 3), (107, 4), (108, 1), (108, 4), (108, 5), (109, 3),
                 (109, 4), (110, 2), (110, 4), (110, 5), (111, 2), (111, 4), (111, 5), (112, 3), (112, 4), (112, 5),
                 (113, 4), (113, 5), (114, 2), (114, 3), (115, 2), (115, 4), (116, 3), (116, 4), (117, 1), (117, 2),
                 (117, 3), (117, 5), (118, 1), (118, 3), (118, 5), (119, 1), (120, 5), (121, 1), (121, 2), (121, 4),
                 (121, 5), (122, 1), (122, 4), (122, 5), (123, 1), (123, 2), (123, 3), (123, 5), (124, 1), (124, 2),
                 (124, 3), (124, 5), (125, 3), (125, 4), (126, 2), (126, 3), (126, 4), (127, 4), (128, 2), (128, 3),
                 (128, 4), (129, 1), (129, 3), (129, 4), (130, 1), (130, 5), (131, 2), (132, 1), (132, 3), (133, 2),
                 (133, 3), (133, 4), (134, 3), (135, 4), (136, 3), (137, 1), (137, 5), (138, 2), (138, 4), (139, 1),
                 (139, 3), (140, 1), (140, 5), (141, 1), (141, 2), (141, 3), (142, 2), (143, 2), (143, 3), (143, 5),
                 (144, 4), (145, 2), (145, 5), (146, 4), (146, 5), (147, 1), (147, 2), (147, 3), (148, 2), (148, 4),
                 (148, 5), (149, 2), (149, 3), (149, 5), (150, 3), (150, 5), (151, 3), (151, 4), (151, 5), (152, 2),
                 (152, 3), (152, 4), (152, 5), (153, 4), (153, 5), (154, 1), (154, 2), (154, 5), (155, 2), (156, 4),
                 (156, 5), (157, 1), (157, 3), (158, 1), (158, 2), (158, 5), (159, 4), (160, 2), (160, 5), (161, 1),
                 (161, 2), (162, 2), (162, 3), (162, 5), (163, 1), (163, 2), (164, 1), (165, 2), (165, 5), (166, 2),
                 (166, 5), (167, 1), (167, 2), (167, 4), (168, 3), (168, 4), (169, 2), (170, 1), (170, 2), (170, 3),
                 (170, 4), (171, 2), (171, 3), (171, 4), (171, 5), (172, 2), (173, 2), (173, 3), (174, 3), (174, 4),
                 (175, 1), (175, 2), (175, 5), (176, 1), (176, 2), (177, 4), (177, 5), (178, 3), (178, 5), (179, 1),
                 (179, 2), (180, 5), (181, 1))
$ Visualisation for usage
$   1   1
$   1   3
$   1   4
$   2   4
$   2   5
$   3   3
$   3   5
$   4   5
$   5   1
$   5   2
$   6   1
$   6   2
$   6   4
$   7   1
$   7   2
$   7   5
$   8   4
$   8   5
$   9   2
$  10   1
$  10   4
$  11   3
$  12   3
$  12   4
$  13   3
$  14   3
$  14   4
$  15   3
$  15   5
$  16   1
$  17   1
$  17   3
$  17   5
$  18   1
$  18   2
$  18   3
$  18   4
$  19   5
$  20   4
$  21   3
$  21   5
$  22   1
$  22   2
$  22   4
$  23   1
$  23   4
$  24   2
$  24   4
$  24   5
$  25   2
$  25   3
$  25   4
$  26   1
$  26   2
$  27   4
$  28   2
$  28   3
$  29   2
$  29   4
$  30   1
$  31   1
$  31   4
$  32   2
$  33   3
$  33   5
$  34   1
$  34   2
$  34   3
$  34   4
$  34   5
$  35   2
$  35   3
$  35   4
$  36   1
$  36   2
$  36   5
$  37   1
$  37   2
$  37   4
$  37   5
$  38   1
$  39   1
$  39   2
$  39   5
$  40   3
$  40   4
$  41   1
$  41   3
$  41   4
$  41   5
$  42   2
$  42   4
$  43   1
$  44   2
$  45   4
$  46   5
$  47   4
$  48   1
$  48   5
$  49   3
$  49   5
$  50   4
$  50   5
$  51   2
$  52   3
$  53   1
$  53   2
$  53   5
$  54   3
$  54   4
$  55   1
$  55   3
$  55   4
$  56   1
$  56   4
$  57   4
$  57   5
$  58   2
$  58   5
$  59   1
$  59   2
$  59   5
$  60   1
$  60   2
$  60   3
$  61   2
$  61   4
$  62   1
$  62   4
$  63   3
$  63   4
$  63   5
$  64   3
$  64   4
$  64   5
$  65   1
$  66   5
$  67   1
$  67   3
$  67   5
$  68   5
$  69   3
$  70   1
$  70   2
$  71   1
$  71   2
$  71   3
$  72   1
$  72   3
$  73   2
$  73   3
$  73   4
$  74   1
$  74   2
$  74   3
$  74   4
$  75   4
$  76   1
$  76   2
$  76   3
$  76   4
$  76   5
$  77   3
$  77   5
$  78   2
$  78   3
$  78   5
$  79   1
$  79   2
$  79   4
$  80   1
$  80   3
$  80   5
$  81   1
$  81   2
$  81   3
$  81   4
$  82   1
$  82   3
$  82   5
$  83   5
$  84   1
$  84   2
$  85   3
$  85   4
$  85   5
$  86   1
$  86   3
$  87   2
$  87   3
$  87   5
$  88   1
$  88   3
$  89   2
$  89   3
$  89   4
$  89   5
$  90   1
$  90   4
$  90   5
$  91   4
$  91   5
$  92   5
$  93   3
$  93   5
$  94   5
$  95   5
$  96   1
$  96   2
$  96   4
$  96   5
$  97   5
$  98   1
$  98   2
$  98   4
$  98   5
$  99   2
$  99   4
$  99   5
$ 100   1
$ 100   2
$ 100   4
$ 101   1
$ 101   2
$ 101   3
$ 102   2
$ 102   5
$ 103   2
$ 103   3
$ 103   4
$ 103   5
$ 104   5
$ 105   1
$ 105   2
$ 106   1
$ 106   2
$ 106   4
$ 107   3
$ 107   4
$ 108   1
$ 108   4
$ 108   5
$ 109   3
$ 109   4
$ 110   2
$ 110   4
$ 110   5
$ 111   2
$ 111   4
$ 111   5
$ 112   3
$ 112   4
$ 112   5
$ 113   4
$ 113   5
$ 114   2
$ 114   3
$ 115   2
$ 115   4
$ 116   3
$ 116   4
$ 117   1
$ 117   2
$ 117   3
$ 117   5
$ 118   1
$ 118   3
$ 118   5
$ 119   1
$ 120   5
$ 121   1
$ 121   2
$ 121   4
$ 121   5
$ 122   1
$ 122   4
$ 122   5
$ 123   1
$ 123   2
$ 123   3
$ 123   5
$ 124   1
$ 124   2
$ 124   3
$ 124   5
$ 125   3
$ 125   4
$ 126   2
$ 126   3
$ 126   4
$ 127   4
$ 128   2
$ 128   3
$ 128   4
$ 129   1
$ 129   3
$ 129   4
$ 130   1
$ 130   5
$ 131   2
$ 132   1
$ 132   3
$ 133   2
$ 133   3
$ 133   4
$ 134   3
$ 135   4
$ 136   3
$ 137   1
$ 137   5
$ 138   2
$ 138   4
$ 139   1
$ 139   3
$ 140   1
$ 140   5
$ 141   1
$ 141   2
$ 141   3
$ 142   2
$ 143   2
$ 143   3
$ 143   5
$ 144   4
$ 145   2
$ 145   5
$ 146   4
$ 146   5
$ 147   1
$ 147   2
$ 147   3
$ 148   2
$ 148   4
$ 148   5
$ 149   2
$ 149   3
$ 149   5
$ 150   3
$ 150   5
$ 151   3
$ 151   4
$ 151   5
$ 152   2
$ 152   3
$ 152   4
$ 152   5
$ 153   4
$ 153   5
$ 154   1
$ 154   2
$ 154   5
$ 155   2
$ 156   4
$ 156   5
$ 157   1
$ 157   3
$ 158   1
$ 158   2
$ 158   5
$ 159   4
$ 160   2
$ 160   5
$ 161   1
$ 161   2
$ 162   2
$ 162   3
$ 162   5
$ 163   1
$ 163   2
$ 164   1
$ 165   2
$ 165   5
$ 166   2
$ 166   5
$ 167   1
$ 167   2
$ 167   4
$ 168   3
$ 168   4
$ 169   2
$ 170   1
$ 170   2
$ 170   3
$ 170   4
$ 171   2
$ 171   3
$ 171   4
$ 171   5
$ 172   2
$ 173   2
$ 173   3
$ 174   3
$ 174   4
$ 175   1
$ 175   2
$ 175   5
$ 176   1
$ 176   2
$ 177   4
$ 177   5
$ 178   3
$ 178   5
$ 179   1
$ 179   2
$ 180   5
$ 181   1

